NAME : XML50_2173_24
COMMENT : Generated as the XML100 dataset from the CVRPLIB
TYPE : CVRP
DIMENSION : 51
EDGE_WEIGHT_TYPE : EUC_2D
CAPACITY : 130
NODE_COORD_SECTION
1    500  500 
2    587  653 
3    763  824 
4    382  40  
5    948  656 
6    406  223 
7    659  71  
8    903  248 
9    8    381 
10   462  133 
11   465  275 
12   774  271 
13   110  285 
14   220  197 
15   662  856 
16   210  833 
17   377  55  
18   145  142 
19   198  700 
20   537  111 
21   816  44  
22   240  632 
23   836  840 
24   774  380 
25   45   756 
26   71   61  
27   291  900 
28   27   689 
29   731  687 
30   438  806 
31   240  650 
32   264  162 
33   280  857 
34   819  940 
35   42   397 
36   553  527 
37   753  73  
38   50   294 
39   145  281 
40   294  175 
41   773  521 
42   515  85  
43   852  488 
44   577  585 
45   989  124 
46   365  592 
47   773  533 
48   246  394 
49   315  551 
50   982  396 
51   93   44  
DEMAND_SECTION
1    0   
2    69  
3    78  
4    3   
5    10  
6    7   
7    7   
8    9   
9    1   
10   7   
11   5   
12   9   
13   1   
14   65  
15   1   
16   3   
17   9   
18   9   
19   7   
20   3   
21   6   
22   7   
23   9   
24   53  
25   9   
26   3   
27   54  
28   6   
29   9   
30   2   
31   6   
32   5   
33   9   
34   7   
35   6   
36   5   
37   6   
38   7   
39   10  
40   81  
41   9   
42   5   
43   56  
44   4   
45   6   
46   9   
47   5   
48   7   
49   7   
50   7   
51   5   
DEPOT_SECTION
1
-1
EOF
